\* election *\
Maximize
OBJ: __dummy
Subject To
C_ub_Bieńczyce: 25000 V_BO.D16.10_24 + 40500 V_BO.D16.11_24 + 120000 V_BO.D16.14_24 + 80000 V_BO.D16.15_24 + 110000 V_BO.D16.16_24 + 16000 V_BO.D16.17_24 + 57600 V_BO.D16.18_24 + 12000 V_BO.D16.19_24 + 500000 V_BO.D16.1_24 + 241000 V_BO.D16.20_24 + 500000 V_BO.D16.23_24 + 20000 V_BO.D16.25_24 + 12000 V_BO.D16.27_24 + 361950 V_BO.D16.28_24 + 69000 V_BO.D16.33_24 + 154000 V_BO.D16.34_24 + 380000 V_BO.D16.3_24 + 165000 V_BO.D16.4_24 + 19650 V_BO.D16.5_24 + 602300 V_BO.D16.6_24 + 205000 V_BO.D16.7_24 + 7400 V_BO.D16.9_24 <= 1656699
....
C_ub_Łagiewniki_Borek_Fałęcki: 350000 V_BO.D9.15_24 + 240000 V_BO.D9.16_24 + 630100 V_BO.D9.17_24 + 115000 V_BO.D9.19_24 + 65000 V_BO.D9.1_24 + 400000 V_BO.D9.21_24 + 297000 V_BO.D9.22_24 + 175000 V_BO.D9.24_24 + 330000 V_BO.D9.26_24 + 41000 V_BO.D9.28_24 + 76000 V_BO.D9.29_24 + 300000 V_BO.D9.2_24 + 120000 V_BO.D9.4_24 + 643005 V_BO.D9.6_24 + 54200 V_BO.D9.8_24 + 510000 V_BO.D9.9_24 <= 1607513
Bounds
 __dummy = 0
Binaries
V_BO.D1.10_24
V_BO.D1.11_24
....
V_BO.OM.98_24
V_BO.OM.99_24
V_BO.OM.9_24
End
OBJECTIVES:
T_12: V_BO.D10.12_24 + V_BO.D10.14_24 + V_BO.D10.24_24 + V_BO.OM.165_24 + V_BO.OM.193_24 + V_BO.OM.30_24
T_45: V_BO.D10.15_24 + V_BO.D10.18_24 + V_BO.D10.1_24 + V_BO.OM.154_24 + V_BO.OM.178_24 + V_BO.OM.92_24
.....
T_74: V_BO.D10.13_24 + V_BO.D10.8_24 + V_BO.D10.9_24 + V_BO.OM.110_24 + V_BO.OM.79_24 + V_BO.OM.97_24
T_82: V_BO.D10.12_24 + V_BO.D10.23_24 + V_BO.D10.7_24 + V_BO.OM.136_24 + V_BO.OM.30_24 + V_BO.OM.88_24
END_OBJECTIVES:
